* ENCODING=ISO-8859-1
NAME          CPLEX
ROWS
 N  obj1    
 G  c1      
 G  c2      
 G  c3      
 G  c4      
 G  c5      
 G  c6      
 G  c7      
 G  c8      
 G  c9      
 G  c10     
 G  c11     
 G  c12     
 G  c13     
 G  c14     
 G  c15     
 G  c16     
 G  c17     
 G  c18     
 G  c19     
 G  c20     
 G  c21     
 G  c22     
 G  c23     
 G  c24     
 G  c25     
 G  c26     
 G  c27     
 G  c28     
 G  c29     
 G  c30     
 G  c31     
 G  c32     
 G  c33     
 G  c34     
 G  c35     
 G  c36     
 G  c37     
 G  c38     
 G  c39     
 G  c40     
 G  c41     
 G  c42     
 G  c43     
 G  c44     
 G  c45     
 G  c46     
 G  c47     
 G  c48     
 G  c49     
 G  c50     
COLUMNS
    MARK0000  'MARKER'                 'INTORG'
    x1        obj1                            1
    x1        c4                            289
    x1        c7                            857
    x1        c24                           588
    x1        c36                           326
    x1        c43                           641
    x1        c44                           683
    x1        c49                           646
    x2        obj1                            1
    x2        c16                           687
    x2        c25                           785
    x3        obj1                            1
    x3        c2                            554
    x3        c36                           453
    x3        c45                           175
    x4        obj1                            1
    x4        c2                            179
    x4        c3                            417
    x4        c13                           228
    x4        c23                           303
    x4        c31                           763
    x5        obj1                            1
    x5        c12                           260
    x5        c18                           252
    x5        c22                           299
    x5        c47                           912
    x6        obj1                            1
    x6        c2                            651
    x6        c37                           755
    x7        obj1                            1
    x7        c5                            348
    x7        c17                           430
    x7        c20                           947
    x7        c21                           651
    x7        c45                           401
    x7        c47                           526
    x8        obj1                            1
    x8        c4                            462
    x8        c11                           570
    x8        c32                           289
    x8        c48                           302
    x9        obj1                            1
    x9        c9                            456
    x9        c29                           784
    x9        c33                           226
    x10       obj1                            1
    x10       c5                            629
    x10       c10                           538
    x10       c11                           783
    x10       c12                           141
    x10       c24                           461
    x10       c36                           523
    x10       c46                           577
    x10       c47                           560
    x10       c50                           193
    x11       obj1                            1
    x11       c9                            796
    x11       c15                           981
    x11       c26                           973
    x11       c30                           146
    x11       c41                           221
    x11       c42                           929
    x11       c45                           678
    x12       obj1                            1
    x12       c26                           661
    x12       c29                           430
    x12       c34                           418
    x12       c38                           551
    x12       c48                           246
    x13       obj1                            1
    x13       c7                            992
    x13       c30                           336
    x13       c38                           650
    x13       c47                           681
    x14       obj1                            1
    x14       c20                           708
    x14       c33                           289
    x14       c39                           647
    x14       c49                           786
    x15       obj1                            1
    x15       c22                           801
    x15       c32                           563
    x15       c48                           608
    x16       obj1                            1
    x16       c17                           190
    x16       c41                           387
    x16       c46                           666
    x16       c49                           638
    x16       c50                           757
    x17       obj1                            1
    x17       c15                           219
    x17       c34                           945
    x18       obj1                            1
    x18       c2                            261
    x18       c45                           686
    x19       obj1                            1
    x19       c1                            498
    x19       c9                            132
    x19       c22                           226
    x19       c32                           338
    x19       c33                           205
    x19       c34                           332
    x19       c35                           502
    x19       c41                           644
    x20       obj1                            1
    x20       c2                            733
    x20       c5                            202
    x20       c16                           123
    x20       c18                           683
    x20       c35                           499
    x21       obj1                            1
    x21       c8                            263
    x21       c11                           149
    x21       c16                           471
    x21       c31                           904
    x21       c39                           766
    x21       c47                           852
    x22       obj1                            1
    x22       c10                           850
    x22       c12                           393
    x22       c21                           664
    x22       c27                           295
    x22       c38                           171
    x23       obj1                            1
    x23       c27                           390
    x24       obj1                            1
    x24       c15                           344
    x24       c31                           727
    x24       c34                           311
    x24       c50                           676
    x25       obj1                            1
    x25       c6                            833
    x25       c32                           455
    x25       c38                           223
    x26       obj1                            1
    x26       c7                            605
    x26       c27                           637
    x26       c38                           171
    x27       obj1                            1
    x27       c6                            351
    x27       c7                            762
    x27       c12                           443
    x27       c15                           610
    x27       c28                           341
    x27       c31                           241
    x27       c32                           839
    x27       c37                           840
    x27       c38                           117
    x27       c44                           115
    x27       c46                           368
    x27       c48                           515
    x28       obj1                            1
    x28       c16                           407
    x28       c26                           871
    x28       c30                           675
    x28       c40                           740
    x28       c44                           331
    x28       c50                           730
    x29       obj1                            1
    x29       c3                            440
    x29       c14                           398
    x29       c15                           548
    x29       c21                           988
    x29       c28                           963
    x30       obj1                            1
    x30       c2                            782
    x30       c7                            465
    x30       c8                            569
    x30       c24                           732
    x30       c27                           582
    x30       c40                           562
    x31       obj1                            1
    x31       c12                           721
    x31       c18                           484
    x31       c35                           570
    x31       c43                           506
    x31       c44                           546
    x32       obj1                            1
    x32       c5                            735
    x32       c9                            386
    x32       c20                           385
    x32       c25                           779
    x32       c34                           981
    x33       obj1                            1
    x33       c5                            165
    x33       c17                           261
    x33       c27                           614
    x33       c35                           743
    x33       c42                           963
    x34       obj1                            1
    x34       c1                            496
    x34       c13                           756
    x34       c16                           690
    x34       c30                           153
    x34       c34                           738
    x34       c35                           527
    x35       obj1                            1
    x35       c13                           903
    x35       c14                           139
    x35       c22                           995
    x35       c23                           886
    x35       c30                           678
    x35       c43                           740
    x36       obj1                            1
    x36       c3                            529
    x36       c6                            155
    x36       c13                           647
    x36       c19                           239
    x36       c28                           347
    x36       c32                           153
    x36       c33                           609
    x37       obj1                            1
    x37       c4                            391
    x37       c24                           269
    x37       c27                           960
    x37       c29                           950
    x37       c33                           846
    x37       c42                           149
    x37       c48                           737
    x38       obj1                            1
    x38       c1                            477
    x38       c13                           960
    x38       c28                           585
    x38       c35                           908
    x38       c42                           479
    x38       c45                           963
    x38       c47                           607
    x38       c49                           411
    x39       obj1                            1
    x39       c12                           677
    x39       c16                           432
    x39       c38                           399
    x39       c41                           346
    x39       c50                           905
    x40       obj1                            1
    x40       c24                           544
    x40       c26                           611
    x40       c48                           267
    x41       obj1                            1
    x41       c30                           731
    x42       obj1                            1
    x42       c3                            427
    x42       c6                            692
    x42       c21                           194
    x42       c26                           855
    x42       c28                           844
    x42       c30                           982
    x42       c37                           584
    x42       c44                           640
    x43       obj1                            1
    x43       c9                            356
    x43       c10                           584
    x43       c23                           428
    x43       c33                           914
    x44       obj1                            1
    x44       c27                           257
    x44       c31                           511
    x44       c40                           239
    x44       c42                           405
    x44       c44                           243
    x45       obj1                            1
    x45       c3                            576
    x45       c12                           415
    x45       c14                           479
    x45       c21                           285
    x45       c28                           597
    x45       c31                           499
    x45       c39                           230
    x45       c48                           533
    x45       c50                           147
    x46       obj1                            1
    x46       c15                           553
    x46       c18                           673
    x46       c24                           865
    x46       c28                           505
    x47       obj1                            1
    x47       c15                           895
    x47       c19                           721
    x47       c26                           376
    x47       c50                           521
    x48       obj1                            1
    x48       c6                            220
    x48       c8                            424
    x48       c16                           418
    x48       c21                           267
    x49       obj1                            1
    x49       c7                            375
    x49       c13                           877
    x49       c19                           228
    x49       c20                           296
    x49       c23                           271
    x49       c31                           713
    x50       obj1                            1
    x50       c5                            652
    x50       c20                           819
    x50       c25                           294
    x50       c42                           924
    x50       c47                           509
    MARK0001  'MARKER'                 'INTEND'
RHS
    rhs       c1                            736
    rhs       c2                           1580
    rhs       c3                           1195
    rhs       c4                            571
    rhs       c5                           1366
    rhs       c6                           1126
    rhs       c7                           2028
    rhs       c8                            628
    rhs       c9                           1063
    rhs       c10                           986
    rhs       c11                           751
    rhs       c12                          1525
    rhs       c13                          2186
    rhs       c14                           508
    rhs       c15                          2075
    rhs       c16                          1614
    rhs       c17                           441
    rhs       c18                          1046
    rhs       c19                           594
    rhs       c20                          1578
    rhs       c21                          1525
    rhs       c22                          1161
    rhs       c23                           944
    rhs       c24                          1730
    rhs       c25                           929
    rhs       c26                          2174
    rhs       c27                          1868
    rhs       c28                          2091
    rhs       c29                          1082
    rhs       c30                          1851
    rhs       c31                          2179
    rhs       c32                          1319
    rhs       c33                          1545
    rhs       c34                          1863
    rhs       c35                          1875
    rhs       c36                           651
    rhs       c37                          1090
    rhs       c38                          1141
    rhs       c39                           822
    rhs       c40                           771
    rhs       c41                           799
    rhs       c42                          1925
    rhs       c43                           944
    rhs       c44                          1279
    rhs       c45                          1452
    rhs       c46                           806
    rhs       c47                          2324
    rhs       c48                          1604
    rhs       c49                          1241
    rhs       c50                          1965
BOUNDS
 LI bnd       x1        0
 LI bnd       x2        0
 LI bnd       x3        0
 LI bnd       x4        0
 LI bnd       x5        0
 LI bnd       x6        0
 LI bnd       x7        0
 LI bnd       x8        0
 LI bnd       x9        0
 LI bnd       x10       0
 LI bnd       x11       0
 LI bnd       x12       0
 LI bnd       x13       0
 LI bnd       x14       0
 LI bnd       x15       0
 LI bnd       x16       0
 LI bnd       x17       0
 LI bnd       x18       0
 LI bnd       x19       0
 LI bnd       x20       0
 LI bnd       x21       0
 LI bnd       x22       0
 LI bnd       x23       0
 LI bnd       x24       0
 LI bnd       x25       0
 LI bnd       x26       0
 LI bnd       x27       0
 LI bnd       x28       0
 LI bnd       x29       0
 LI bnd       x30       0
 LI bnd       x31       0
 LI bnd       x32       0
 LI bnd       x33       0
 LI bnd       x34       0
 LI bnd       x35       0
 LI bnd       x36       0
 LI bnd       x37       0
 LI bnd       x38       0
 LI bnd       x39       0
 LI bnd       x40       0
 LI bnd       x41       0
 LI bnd       x42       0
 LI bnd       x43       0
 LI bnd       x44       0
 LI bnd       x45       0
 LI bnd       x46       0
 LI bnd       x47       0
 LI bnd       x48       0
 LI bnd       x49       0
 LI bnd       x50       0
ENDATA
